61
100
70	20
69	17
68	20
67	20
66	11
65	16
64	21
63	19
62	13
61	11
60	20
59	13
58	14
57	14
56	13
55	19
54	11
53	16
52	13
51	18
50	16
49	13
48	21
47	19
46	15
45	17
44	22
43	16
42	21
41	14
40	22
39	17
38	11
37	15
36	21
35	16
34	19
33	18
32	12
31	18
30	11
29	20
28	18
27	18
26	11
25	12
24	13
23	14
22	20
21	15
20	21
19	14
18	15
17	11
16	20
15	15
14	13
13	21
12	20
11	18
10	18
